26160
1 0 0 1 1 1 0 1 0 1 0 0 1 0 0 0 1 0 0 1 0 1 0 1 1 0 0 1 1 0 
7 19 21 27 21 12 21 27 27 28 4 28 23 3 28 7 3 23 27 0 27 16 5 24 23 27 27 19 4 21 19 19 4 16 27 12 9 9 24 16 7 9 12 4 9 19 3 21 19 19 24 16 24 16 9 12 7 9 27 7 4 0 7 9 3 12 5 19 28 12 7 12 19 9 23 23 23 23 9 16 23 0 9 7 4 23 19 5 27 7 28 19 7 7 0 3 28 12 0 28 28 21 12 7 4 0 4 24 27 3 19 4 27 12 12 9 28 7 0 9 9 12 28 19 9 16 21 12 19 0 28 24 12 23 23 9 3 3 28 23 12 27 12 12 7 5 24 21 27 7 24 0 23 0 3 28 5 16 3 3 3 27 5 24 5 27 5 4 3 21 5 9 19 19 4 21 0 9 4 5 5 21 21 19 12 9 28 5 0 21 21 21 19 4 7 12 7 21 5 19 
